c Represent allocation problem as max flow for bipartite graph.
p max 178 1459
n 1 s
n 178 t
a 1 2 17.256
a 1 3 6.28006
a 1 4 21.3861
a 1 5 33.6917
a 1 6 8.45827
a 1 7 43.0269
a 1 8 11.0891
a 1 9 12.2207
a 1 10 4.92221
a 1 11 13.6917
a 1 12 13.0127
a 1 13 18.4724
a 1 14 17.1429
a 1 15 24.611
a 1 16 35.8699
a 1 17 3.22489
a 1 18 6.05375
a 1 19 38.7553
a 1 20 19.2928
a 1 21 13.0693
a 1 22 23.6492
a 1 23 27.7511
a 1 24 18.5856
a 1 25 28.6846
a 1 26 17.4257
a 1 27 20.8204
a 1 28 8.59972
a 1 29 22.3762
a 1 30 10.4102
a 1 31 18.0764
a 1 32 7.72277
a 1 33 17.1146
a 1 34 5.23338
a 1 35 12.0509
a 1 36 5.60113
a 1 37 4.27157
a 1 38 29.505
a 1 39 3.98868
a 1 40 15.7001
a 1 41 7.07214
a 1 42 11.1174
a 1 43 7.75106
a 1 44 14.512
a 1 45 10.9477
a 1 46 48.5997
a 1 47 22.2065
a 1 48 11.7397
a 1 49 15.8133
a 1 50 31.57
a 1 51 7.69448
a 1 52 35.3041
a 1 53 16.2093
a 1 54 38.8685
a 1 55 10.2687
a 1 56 14.8798
a 1 57 19.604
a 1 58 8.76945
a 1 59 11.2871
a 2 82 2147483647
a 2 83 2147483647
a 2 84 2147483647
a 2 85 2147483647
a 2 86 2147483647
a 2 87 2147483647
a 2 88 2147483647
a 2 89 2147483647
a 3 62 2147483647
a 3 63 2147483647
a 3 64 2147483647
a 3 65 2147483647
a 3 66 2147483647
a 3 67 2147483647
a 3 68 2147483647
a 3 71 2147483647
a 3 74 2147483647
a 3 75 2147483647
a 4 62 2147483647
a 4 63 2147483647
a 4 64 2147483647
a 4 65 2147483647
a 4 66 2147483647
a 4 67 2147483647
a 4 68 2147483647
a 4 69 2147483647
a 4 70 2147483647
a 4 71 2147483647
a 4 72 2147483647
a 4 73 2147483647
a 4 74 2147483647
a 4 75 2147483647
a 5 66 2147483647
a 5 67 2147483647
a 5 68 2147483647
a 5 69 2147483647
a 5 70 2147483647
a 5 71 2147483647
a 5 72 2147483647
a 5 73 2147483647
a 5 74 2147483647
a 5 75 2147483647
a 6 60 2147483647
a 6 61 2147483647
a 6 100 2147483647
a 6 103 2147483647
a 6 104 2147483647
a 6 105 2147483647
a 6 118 2147483647
a 6 119 2147483647
a 6 120 2147483647
a 6 121 2147483647
a 6 139 2147483647
a 6 140 2147483647
a 6 156 2147483647
a 6 157 2147483647
a 6 158 2147483647
a 6 160 2147483647
a 6 161 2147483647
a 6 163 2147483647
a 6 164 2147483647
a 6 165 2147483647
a 6 166 2147483647
a 6 167 2147483647
a 6 168 2147483647
a 7 60 2147483647
a 7 61 2147483647
a 7 87 2147483647
a 7 89 2147483647
a 7 90 2147483647
a 7 91 2147483647
a 7 99 2147483647
a 7 101 2147483647
a 7 102 2147483647
a 7 103 2147483647
a 7 104 2147483647
a 7 105 2147483647
a 7 118 2147483647
a 7 120 2147483647
a 7 121 2147483647
a 7 122 2147483647
a 7 137 2147483647
a 7 154 2147483647
a 7 156 2147483647
a 7 157 2147483647
a 8 66 2147483647
a 8 67 2147483647
a 8 68 2147483647
a 8 69 2147483647
a 8 70 2147483647
a 8 72 2147483647
a 8 73 2147483647
a 8 74 2147483647
a 8 75 2147483647
a 9 92 2147483647
a 9 63 2147483647
a 9 68 2147483647
a 9 72 2147483647
a 9 72 2147483647
a 9 75 2147483647
a 9 90 2147483647
a 9 92 2147483647
a 9 111 2147483647
a 9 117 2147483647
a 9 121 2147483647
a 9 169 2147483647
a 9 174 2147483647
a 9 174 2147483647
a 10 62 2147483647
a 10 63 2147483647
a 10 64 2147483647
a 10 65 2147483647
a 10 66 2147483647
a 10 67 2147483647
a 10 68 2147483647
a 10 71 2147483647
a 10 73 2147483647
a 10 74 2147483647
a 10 75 2147483647
a 11 79 2147483647
a 11 80 2147483647
a 11 81 2147483647
a 11 106 2147483647
a 11 107 2147483647
a 11 108 2147483647
a 11 109 2147483647
a 11 110 2147483647
a 11 111 2147483647
a 11 126 2147483647
a 11 127 2147483647
a 11 128 2147483647
a 11 129 2147483647
a 11 130 2147483647
a 11 131 2147483647
a 11 132 2147483647
a 11 133 2147483647
a 11 134 2147483647
a 11 135 2147483647
a 11 138 2147483647
a 11 143 2147483647
a 11 144 2147483647
a 11 145 2147483647
a 11 146 2147483647
a 11 147 2147483647
a 11 148 2147483647
a 11 149 2147483647
a 11 150 2147483647
a 11 151 2147483647
a 11 152 2147483647
a 11 171 2147483647
a 12 93 2147483647
a 12 94 2147483647
a 12 95 2147483647
a 12 96 2147483647
a 12 97 2147483647
a 12 98 2147483647
a 12 100 2147483647
a 12 115 2147483647
a 12 116 2147483647
a 12 117 2147483647
a 12 118 2147483647
a 12 119 2147483647
a 12 120 2147483647
a 12 125 2147483647
a 12 139 2147483647
a 12 140 2147483647
a 12 155 2147483647
a 12 177 2147483647
a 13 76 2147483647
a 13 77 2147483647
a 13 78 2147483647
a 14 82 2147483647
a 14 83 2147483647
a 14 84 2147483647
a 14 85 2147483647
a 14 86 2147483647
a 14 87 2147483647
a 14 88 2147483647
a 14 89 2147483647
a 14 90 2147483647
a 14 91 2147483647
a 14 154 2147483647
a 15 60 2147483647
a 15 82 2147483647
a 15 83 2147483647
a 15 84 2147483647
a 15 85 2147483647
a 15 86 2147483647
a 15 87 2147483647
a 15 88 2147483647
a 15 89 2147483647
a 15 90 2147483647
a 15 91 2147483647
a 15 122 2147483647
a 15 154 2147483647
a 16 93 2147483647
a 16 94 2147483647
a 16 95 2147483647
a 16 96 2147483647
a 16 97 2147483647
a 16 98 2147483647
a 16 99 2147483647
a 16 101 2147483647
a 16 102 2147483647
a 16 112 2147483647
a 16 113 2147483647
a 16 114 2147483647
a 16 115 2147483647
a 16 116 2147483647
a 16 117 2147483647
a 16 118 2147483647
a 16 120 2147483647
a 16 125 2147483647
a 16 135 2147483647
a 16 136 2147483647
a 16 137 2147483647
a 16 138 2147483647
a 16 144 2147483647
a 16 148 2147483647
a 16 152 2147483647
a 16 175 2147483647
a 16 176 2147483647
a 16 177 2147483647
a 17 60 2147483647
a 17 61 2147483647
a 17 90 2147483647
a 17 91 2147483647
a 17 103 2147483647
a 17 104 2147483647
a 17 105 2147483647
a 17 121 2147483647
a 17 156 2147483647
a 17 160 2147483647
a 17 161 2147483647
a 17 163 2147483647
a 17 164 2147483647
a 17 165 2147483647
a 17 166 2147483647
a 17 167 2147483647
a 17 168 2147483647
a 18 60 2147483647
a 18 84 2147483647
a 18 86 2147483647
a 18 87 2147483647
a 18 88 2147483647
a 18 89 2147483647
a 18 90 2147483647
a 18 91 2147483647
a 18 101 2147483647
a 18 102 2147483647
a 18 103 2147483647
a 18 104 2147483647
a 18 121 2147483647
a 18 122 2147483647
a 18 123 2147483647
a 18 124 2147483647
a 18 137 2147483647
a 18 154 2147483647
a 18 156 2147483647
a 18 157 2147483647
a 18 172 2147483647
a 19 169 2147483647
a 19 170 2147483647
a 19 60 2147483647
a 19 63 2147483647
a 19 65 2147483647
a 19 66 2147483647
a 19 67 2147483647
a 19 68 2147483647
a 19 70 2147483647
a 19 72 2147483647
a 19 72 2147483647
a 19 72 2147483647
a 19 73 2147483647
a 19 73 2147483647
a 19 74 2147483647
a 19 75 2147483647
a 19 80 2147483647
a 19 81 2147483647
a 19 90 2147483647
a 19 95 2147483647
a 19 121 2147483647
a 19 125 2147483647
a 19 125 2147483647
a 19 125 2147483647
a 19 125 2147483647
a 19 128 2147483647
a 19 132 2147483647
a 19 133 2147483647
a 19 133 2147483647
a 19 141 2147483647
a 19 158 2147483647
a 19 158 2147483647
a 19 166 2147483647
a 19 169 2147483647
a 19 170 2147483647
a 19 170 2147483647
a 19 175 2147483647
a 20 60 2147483647
a 20 90 2147483647
a 20 91 2147483647
a 20 93 2147483647
a 20 94 2147483647
a 20 95 2147483647
a 20 96 2147483647
a 20 97 2147483647
a 20 98 2147483647
a 20 99 2147483647
a 20 101 2147483647
a 20 102 2147483647
a 20 112 2147483647
a 20 113 2147483647
a 20 114 2147483647
a 20 118 2147483647
a 20 120 2147483647
a 20 122 2147483647
a 20 123 2147483647
a 20 124 2147483647
a 20 135 2147483647
a 20 136 2147483647
a 20 137 2147483647
a 20 138 2147483647
a 20 144 2147483647
a 20 146 2147483647
a 20 148 2147483647
a 20 152 2147483647
a 20 156 2147483647
a 20 157 2147483647
a 20 172 2147483647
a 20 175 2147483647
a 20 176 2147483647
a 20 177 2147483647
a 21 81 2147483647
a 21 94 2147483647
a 21 95 2147483647
a 21 96 2147483647
a 21 97 2147483647
a 21 98 2147483647
a 21 99 2147483647
a 21 101 2147483647
a 21 102 2147483647
a 21 110 2147483647
a 21 111 2147483647
a 21 112 2147483647
a 21 113 2147483647
a 21 114 2147483647
a 21 126 2147483647
a 21 127 2147483647
a 21 128 2147483647
a 21 129 2147483647
a 21 130 2147483647
a 21 131 2147483647
a 21 132 2147483647
a 21 133 2147483647
a 21 134 2147483647
a 21 135 2147483647
a 21 136 2147483647
a 21 137 2147483647
a 21 138 2147483647
a 21 143 2147483647
a 21 144 2147483647
a 21 145 2147483647
a 21 146 2147483647
a 21 147 2147483647
a 21 148 2147483647
a 21 149 2147483647
a 21 150 2147483647
a 21 151 2147483647
a 21 152 2147483647
a 21 171 2147483647
a 21 172 2147483647
a 21 175 2147483647
a 21 176 2147483647
a 21 177 2147483647
a 22 79 2147483647
a 22 80 2147483647
a 22 81 2147483647
a 22 106 2147483647
a 22 107 2147483647
a 22 108 2147483647
a 22 109 2147483647
a 22 110 2147483647
a 22 111 2147483647
a 22 112 2147483647
a 22 113 2147483647
a 22 114 2147483647
a 22 126 2147483647
a 22 127 2147483647
a 22 128 2147483647
a 22 129 2147483647
a 22 130 2147483647
a 22 131 2147483647
a 22 132 2147483647
a 22 133 2147483647
a 22 134 2147483647
a 22 135 2147483647
a 22 136 2147483647
a 22 138 2147483647
a 22 143 2147483647
a 22 144 2147483647
a 22 145 2147483647
a 22 146 2147483647
a 22 147 2147483647
a 22 148 2147483647
a 22 149 2147483647
a 22 150 2147483647
a 22 151 2147483647
a 22 152 2147483647
a 22 171 2147483647
a 22 172 2147483647
a 23 82 2147483647
a 23 83 2147483647
a 23 84 2147483647
a 23 85 2147483647
a 23 86 2147483647
a 23 87 2147483647
a 23 88 2147483647
a 23 89 2147483647
a 23 90 2147483647
a 23 91 2147483647
a 23 154 2147483647
a 24 93 2147483647
a 24 94 2147483647
a 24 95 2147483647
a 24 96 2147483647
a 24 97 2147483647
a 24 98 2147483647
a 24 99 2147483647
a 24 101 2147483647
a 24 102 2147483647
a 24 112 2147483647
a 24 113 2147483647
a 24 114 2147483647
a 24 129 2147483647
a 24 135 2147483647
a 24 136 2147483647
a 24 137 2147483647
a 24 138 2147483647
a 24 144 2147483647
a 24 145 2147483647
a 24 146 2147483647
a 24 148 2147483647
a 24 152 2147483647
a 24 175 2147483647
a 24 176 2147483647
a 24 177 2147483647
a 25 60 2147483647
a 25 93 2147483647
a 25 94 2147483647
a 25 95 2147483647
a 25 96 2147483647
a 25 97 2147483647
a 25 98 2147483647
a 25 99 2147483647
a 25 100 2147483647
a 25 101 2147483647
a 25 102 2147483647
a 25 112 2147483647
a 25 113 2147483647
a 25 114 2147483647
a 25 118 2147483647
a 25 119 2147483647
a 25 120 2147483647
a 25 135 2147483647
a 25 136 2147483647
a 25 137 2147483647
a 25 138 2147483647
a 25 144 2147483647
a 25 148 2147483647
a 25 152 2147483647
a 25 156 2147483647
a 25 157 2147483647
a 25 175 2147483647
a 25 176 2147483647
a 25 177 2147483647
a 26 93 2147483647
a 26 94 2147483647
a 26 95 2147483647
a 26 96 2147483647
a 26 97 2147483647
a 26 98 2147483647
a 26 99 2147483647
a 26 100 2147483647
a 26 101 2147483647
a 26 112 2147483647
a 26 113 2147483647
a 26 114 2147483647
a 26 115 2147483647
a 26 116 2147483647
a 26 117 2147483647
a 26 118 2147483647
a 26 119 2147483647
a 26 120 2147483647
a 26 125 2147483647
a 26 137 2147483647
a 26 155 2147483647
a 26 175 2147483647
a 26 176 2147483647
a 26 177 2147483647
a 27 79 2147483647
a 27 80 2147483647
a 27 81 2147483647
a 27 106 2147483647
a 27 107 2147483647
a 27 108 2147483647
a 27 109 2147483647
a 27 110 2147483647
a 27 111 2147483647
a 27 126 2147483647
a 27 127 2147483647
a 27 128 2147483647
a 27 129 2147483647
a 27 130 2147483647
a 27 131 2147483647
a 27 132 2147483647
a 27 133 2147483647
a 27 134 2147483647
a 27 143 2147483647
a 27 145 2147483647
a 27 146 2147483647
a 27 147 2147483647
a 27 149 2147483647
a 27 150 2147483647
a 27 151 2147483647
a 28 61 2147483647
a 28 93 2147483647
a 28 99 2147483647
a 28 100 2147483647
a 28 115 2147483647
a 28 116 2147483647
a 28 117 2147483647
a 28 118 2147483647
a 28 119 2147483647
a 28 120 2147483647
a 28 125 2147483647
a 28 139 2147483647
a 28 140 2147483647
a 28 155 2147483647
a 28 156 2147483647
a 28 177 2147483647
a 29 60 2147483647
a 29 90 2147483647
a 29 91 2147483647
a 29 93 2147483647
a 29 94 2147483647
a 29 95 2147483647
a 29 96 2147483647
a 29 97 2147483647
a 29 98 2147483647
a 29 99 2147483647
a 29 101 2147483647
a 29 102 2147483647
a 29 112 2147483647
a 29 113 2147483647
a 29 114 2147483647
a 29 118 2147483647
a 29 120 2147483647
a 29 122 2147483647
a 29 135 2147483647
a 29 136 2147483647
a 29 137 2147483647
a 29 138 2147483647
a 29 144 2147483647
a 29 148 2147483647
a 29 152 2147483647
a 29 156 2147483647
a 29 157 2147483647
a 29 172 2147483647
a 29 175 2147483647
a 29 176 2147483647
a 29 177 2147483647
a 30 79 2147483647
a 30 80 2147483647
a 30 81 2147483647
a 30 106 2147483647
a 30 107 2147483647
a 30 108 2147483647
a 30 109 2147483647
a 30 110 2147483647
a 30 111 2147483647
a 30 122 2147483647
a 30 123 2147483647
a 30 124 2147483647
a 30 126 2147483647
a 30 127 2147483647
a 30 128 2147483647
a 30 129 2147483647
a 30 130 2147483647
a 30 131 2147483647
a 30 132 2147483647
a 30 133 2147483647
a 30 134 2147483647
a 30 135 2147483647
a 30 136 2147483647
a 30 138 2147483647
a 30 143 2147483647
a 30 144 2147483647
a 30 145 2147483647
a 30 146 2147483647
a 30 147 2147483647
a 30 148 2147483647
a 30 149 2147483647
a 30 150 2147483647
a 30 151 2147483647
a 30 152 2147483647
a 30 171 2147483647
a 30 172 2147483647
a 31 79 2147483647
a 31 80 2147483647
a 31 81 2147483647
a 31 106 2147483647
a 31 107 2147483647
a 31 108 2147483647
a 31 109 2147483647
a 31 110 2147483647
a 31 111 2147483647
a 31 126 2147483647
a 31 127 2147483647
a 31 128 2147483647
a 31 129 2147483647
a 31 130 2147483647
a 31 131 2147483647
a 31 132 2147483647
a 31 133 2147483647
a 31 134 2147483647
a 31 143 2147483647
a 31 145 2147483647
a 31 146 2147483647
a 31 147 2147483647
a 31 149 2147483647
a 31 150 2147483647
a 31 151 2147483647
a 32 60 2147483647
a 32 81 2147483647
a 32 87 2147483647
a 32 89 2147483647
a 32 90 2147483647
a 32 91 2147483647
a 32 101 2147483647
a 32 102 2147483647
a 32 110 2147483647
a 32 111 2147483647
a 32 122 2147483647
a 32 123 2147483647
a 32 124 2147483647
a 32 136 2147483647
a 32 137 2147483647
a 32 144 2147483647
a 32 146 2147483647
a 32 148 2147483647
a 32 152 2147483647
a 32 154 2147483647
a 32 157 2147483647
a 32 171 2147483647
a 32 172 2147483647
a 33 60 2147483647
a 33 61 2147483647
a 33 93 2147483647
a 33 94 2147483647
a 33 95 2147483647
a 33 96 2147483647
a 33 97 2147483647
a 33 98 2147483647
a 33 99 2147483647
a 33 100 2147483647
a 33 101 2147483647
a 33 102 2147483647
a 33 115 2147483647
a 33 116 2147483647
a 33 118 2147483647
a 33 119 2147483647
a 33 120 2147483647
a 33 121 2147483647
a 33 125 2147483647
a 33 136 2147483647
a 33 137 2147483647
a 33 139 2147483647
a 33 140 2147483647
a 33 156 2147483647
a 33 157 2147483647
a 33 175 2147483647
a 33 176 2147483647
a 33 177 2147483647
a 34 79 2147483647
a 34 80 2147483647
a 34 81 2147483647
a 34 106 2147483647
a 34 107 2147483647
a 34 108 2147483647
a 34 109 2147483647
a 34 110 2147483647
a 34 111 2147483647
a 34 123 2147483647
a 34 124 2147483647
a 34 126 2147483647
a 34 127 2147483647
a 34 128 2147483647
a 34 129 2147483647
a 34 130 2147483647
a 34 131 2147483647
a 34 132 2147483647
a 34 133 2147483647
a 34 134 2147483647
a 34 135 2147483647
a 34 138 2147483647
a 34 143 2147483647
a 34 144 2147483647
a 34 145 2147483647
a 34 146 2147483647
a 34 147 2147483647
a 34 148 2147483647
a 34 149 2147483647
a 34 150 2147483647
a 34 151 2147483647
a 34 152 2147483647
a 34 171 2147483647
a 34 172 2147483647
a 35 93 2147483647
a 35 94 2147483647
a 35 95 2147483647
a 35 96 2147483647
a 35 97 2147483647
a 35 98 2147483647
a 35 100 2147483647
a 35 115 2147483647
a 35 116 2147483647
a 35 117 2147483647
a 35 119 2147483647
a 35 125 2147483647
a 35 155 2147483647
a 35 175 2147483647
a 35 176 2147483647
a 35 177 2147483647
a 36 62 2147483647
a 36 63 2147483647
a 36 64 2147483647
a 36 65 2147483647
a 36 66 2147483647
a 36 67 2147483647
a 36 68 2147483647
a 36 71 2147483647
a 36 74 2147483647
a 36 75 2147483647
a 36 169 2147483647
a 36 170 2147483647
a 37 79 2147483647
a 37 80 2147483647
a 37 81 2147483647
a 37 99 2147483647
a 37 106 2147483647
a 37 107 2147483647
a 37 108 2147483647
a 37 109 2147483647
a 37 110 2147483647
a 37 111 2147483647
a 37 112 2147483647
a 37 113 2147483647
a 37 114 2147483647
a 37 126 2147483647
a 37 127 2147483647
a 37 128 2147483647
a 37 129 2147483647
a 37 130 2147483647
a 37 131 2147483647
a 37 132 2147483647
a 37 133 2147483647
a 37 134 2147483647
a 37 135 2147483647
a 37 136 2147483647
a 37 137 2147483647
a 37 138 2147483647
a 37 143 2147483647
a 37 144 2147483647
a 37 145 2147483647
a 37 146 2147483647
a 37 147 2147483647
a 37 148 2147483647
a 37 149 2147483647
a 37 150 2147483647
a 37 151 2147483647
a 37 152 2147483647
a 37 171 2147483647
a 37 172 2147483647
a 38 62 2147483647
a 38 63 2147483647
a 38 64 2147483647
a 38 65 2147483647
a 38 76 2147483647
a 38 77 2147483647
a 38 78 2147483647
a 39 79 2147483647
a 39 80 2147483647
a 39 81 2147483647
a 39 106 2147483647
a 39 107 2147483647
a 39 108 2147483647
a 39 109 2147483647
a 39 110 2147483647
a 39 111 2147483647
a 39 123 2147483647
a 39 126 2147483647
a 39 127 2147483647
a 39 128 2147483647
a 39 129 2147483647
a 39 130 2147483647
a 39 131 2147483647
a 39 132 2147483647
a 39 133 2147483647
a 39 134 2147483647
a 39 135 2147483647
a 39 138 2147483647
a 39 143 2147483647
a 39 144 2147483647
a 39 145 2147483647
a 39 146 2147483647
a 39 147 2147483647
a 39 148 2147483647
a 39 149 2147483647
a 39 150 2147483647
a 39 151 2147483647
a 39 152 2147483647
a 39 171 2147483647
a 39 172 2147483647
a 40 81 2147483647
a 40 90 2147483647
a 40 91 2147483647
a 40 110 2147483647
a 40 111 2147483647
a 40 122 2147483647
a 40 123 2147483647
a 40 124 2147483647
a 40 126 2147483647
a 40 127 2147483647
a 40 143 2147483647
a 40 145 2147483647
a 40 146 2147483647
a 40 147 2147483647
a 40 149 2147483647
a 40 150 2147483647
a 40 151 2147483647
a 40 154 2147483647
a 40 171 2147483647
a 40 172 2147483647
a 41 60 2147483647
a 41 61 2147483647
a 41 90 2147483647
a 41 91 2147483647
a 41 103 2147483647
a 41 104 2147483647
a 41 105 2147483647
a 41 118 2147483647
a 41 120 2147483647
a 41 121 2147483647
a 41 156 2147483647
a 41 157 2147483647
a 41 158 2147483647
a 41 160 2147483647
a 41 161 2147483647
a 41 163 2147483647
a 41 164 2147483647
a 41 165 2147483647
a 41 166 2147483647
a 41 167 2147483647
a 41 168 2147483647
a 42 61 2147483647
a 42 100 2147483647
a 42 105 2147483647
a 42 118 2147483647
a 42 119 2147483647
a 42 120 2147483647
a 42 125 2147483647
a 42 139 2147483647
a 42 140 2147483647
a 42 156 2147483647
a 42 158 2147483647
a 42 159 2147483647
a 42 160 2147483647
a 42 161 2147483647
a 42 162 2147483647
a 42 163 2147483647
a 42 164 2147483647
a 42 165 2147483647
a 42 166 2147483647
a 42 167 2147483647
a 42 168 2147483647
a 43 81 2147483647
a 43 93 2147483647
a 43 94 2147483647
a 43 95 2147483647
a 43 96 2147483647
a 43 97 2147483647
a 43 98 2147483647
a 43 99 2147483647
a 43 101 2147483647
a 43 102 2147483647
a 43 110 2147483647
a 43 111 2147483647
a 43 112 2147483647
a 43 113 2147483647
a 43 114 2147483647
a 43 118 2147483647
a 43 120 2147483647
a 43 129 2147483647
a 43 135 2147483647
a 43 136 2147483647
a 43 137 2147483647
a 43 138 2147483647
a 43 144 2147483647
a 43 145 2147483647
a 43 146 2147483647
a 43 148 2147483647
a 43 152 2147483647
a 43 157 2147483647
a 43 175 2147483647
a 43 176 2147483647
a 43 177 2147483647
a 44 141 2147483647
a 44 142 2147483647
a 44 173 2147483647
a 44 174 2147483647
a 45 79 2147483647
a 45 80 2147483647
a 45 81 2147483647
a 45 94 2147483647
a 45 95 2147483647
a 45 96 2147483647
a 45 97 2147483647
a 45 98 2147483647
a 45 99 2147483647
a 45 101 2147483647
a 45 102 2147483647
a 45 110 2147483647
a 45 111 2147483647
a 45 112 2147483647
a 45 113 2147483647
a 45 114 2147483647
a 45 122 2147483647
a 45 123 2147483647
a 45 124 2147483647
a 45 126 2147483647
a 45 127 2147483647
a 45 128 2147483647
a 45 129 2147483647
a 45 130 2147483647
a 45 131 2147483647
a 45 132 2147483647
a 45 133 2147483647
a 45 134 2147483647
a 45 135 2147483647
a 45 136 2147483647
a 45 137 2147483647
a 45 138 2147483647
a 45 143 2147483647
a 45 144 2147483647
a 45 145 2147483647
a 45 146 2147483647
a 45 147 2147483647
a 45 148 2147483647
a 45 149 2147483647
a 45 150 2147483647
a 45 151 2147483647
a 45 152 2147483647
a 45 171 2147483647
a 45 172 2147483647
a 46 93 2147483647
a 46 94 2147483647
a 46 95 2147483647
a 46 96 2147483647
a 46 97 2147483647
a 46 98 2147483647
a 46 99 2147483647
a 46 101 2147483647
a 46 102 2147483647
a 46 112 2147483647
a 46 113 2147483647
a 46 114 2147483647
a 46 115 2147483647
a 46 116 2147483647
a 46 117 2147483647
a 46 118 2147483647
a 46 120 2147483647
a 46 135 2147483647
a 46 136 2147483647
a 46 137 2147483647
a 46 138 2147483647
a 46 175 2147483647
a 46 176 2147483647
a 46 177 2147483647
a 47 61 2147483647
a 47 105 2147483647
a 47 121 2147483647
a 47 139 2147483647
a 47 140 2147483647
a 47 156 2147483647
a 47 158 2147483647
a 47 159 2147483647
a 47 160 2147483647
a 47 161 2147483647
a 47 162 2147483647
a 47 163 2147483647
a 47 164 2147483647
a 47 165 2147483647
a 47 166 2147483647
a 47 167 2147483647
a 47 168 2147483647
a 48 60 2147483647
a 48 61 2147483647
a 48 90 2147483647
a 48 91 2147483647
a 48 94 2147483647
a 48 95 2147483647
a 48 96 2147483647
a 48 97 2147483647
a 48 98 2147483647
a 48 99 2147483647
a 48 101 2147483647
a 48 102 2147483647
a 48 118 2147483647
a 48 120 2147483647
a 48 121 2147483647
a 48 122 2147483647
a 48 136 2147483647
a 48 137 2147483647
a 48 156 2147483647
a 48 157 2147483647
a 49 81 2147483647
a 49 94 2147483647
a 49 95 2147483647
a 49 96 2147483647
a 49 97 2147483647
a 49 98 2147483647
a 49 99 2147483647
a 49 101 2147483647
a 49 102 2147483647
a 49 110 2147483647
a 49 111 2147483647
a 49 112 2147483647
a 49 113 2147483647
a 49 114 2147483647
a 49 118 2147483647
a 49 120 2147483647
a 49 122 2147483647
a 49 123 2147483647
a 49 124 2147483647
a 49 126 2147483647
a 49 129 2147483647
a 49 135 2147483647
a 49 136 2147483647
a 49 137 2147483647
a 49 138 2147483647
a 49 143 2147483647
a 49 144 2147483647
a 49 145 2147483647
a 49 146 2147483647
a 49 147 2147483647
a 49 148 2147483647
a 49 149 2147483647
a 49 150 2147483647
a 49 151 2147483647
a 49 152 2147483647
a 49 157 2147483647
a 49 171 2147483647
a 49 172 2147483647
a 49 175 2147483647
a 49 176 2147483647
a 50 61 2147483647
a 50 105 2147483647
a 50 121 2147483647
a 50 139 2147483647
a 50 140 2147483647
a 50 156 2147483647
a 50 158 2147483647
a 50 159 2147483647
a 50 160 2147483647
a 50 161 2147483647
a 50 162 2147483647
a 50 163 2147483647
a 50 164 2147483647
a 50 165 2147483647
a 50 166 2147483647
a 50 167 2147483647
a 50 168 2147483647
a 51 79 2147483647
a 51 80 2147483647
a 51 81 2147483647
a 51 106 2147483647
a 51 107 2147483647
a 51 108 2147483647
a 51 109 2147483647
a 51 110 2147483647
a 51 111 2147483647
a 51 122 2147483647
a 51 123 2147483647
a 51 124 2147483647
a 51 126 2147483647
a 51 127 2147483647
a 51 128 2147483647
a 51 129 2147483647
a 51 130 2147483647
a 51 131 2147483647
a 51 132 2147483647
a 51 133 2147483647
a 51 134 2147483647
a 51 135 2147483647
a 51 136 2147483647
a 51 138 2147483647
a 51 143 2147483647
a 51 144 2147483647
a 51 145 2147483647
a 51 146 2147483647
a 51 147 2147483647
a 51 148 2147483647
a 51 149 2147483647
a 51 150 2147483647
a 51 151 2147483647
a 51 152 2147483647
a 51 171 2147483647
a 51 172 2147483647
a 52 60 2147483647
a 52 61 2147483647
a 52 90 2147483647
a 52 91 2147483647
a 52 99 2147483647
a 52 100 2147483647
a 52 101 2147483647
a 52 102 2147483647
a 52 103 2147483647
a 52 104 2147483647
a 52 105 2147483647
a 52 118 2147483647
a 52 119 2147483647
a 52 120 2147483647
a 52 121 2147483647
a 52 137 2147483647
a 52 139 2147483647
a 52 140 2147483647
a 52 156 2147483647
a 52 157 2147483647
a 52 164 2147483647
a 52 166 2147483647
a 52 167 2147483647
a 53 79 2147483647
a 53 80 2147483647
a 53 81 2147483647
a 53 106 2147483647
a 53 107 2147483647
a 53 108 2147483647
a 53 109 2147483647
a 53 110 2147483647
a 53 111 2147483647
a 53 123 2147483647
a 53 124 2147483647
a 53 126 2147483647
a 53 127 2147483647
a 53 128 2147483647
a 53 129 2147483647
a 53 130 2147483647
a 53 131 2147483647
a 53 132 2147483647
a 53 133 2147483647
a 53 134 2147483647
a 53 135 2147483647
a 53 136 2147483647
a 53 138 2147483647
a 53 143 2147483647
a 53 144 2147483647
a 53 145 2147483647
a 53 146 2147483647
a 53 147 2147483647
a 53 148 2147483647
a 53 149 2147483647
a 53 150 2147483647
a 53 151 2147483647
a 53 152 2147483647
a 53 171 2147483647
a 53 172 2147483647
a 54 153 2147483647
a 54 60 2147483647
a 54 81 2147483647
a 54 83 2147483647
a 54 85 2147483647
a 54 87 2147483647
a 54 88 2147483647
a 54 90 2147483647
a 54 91 2147483647
a 54 111 2147483647
a 54 117 2147483647
a 54 121 2147483647
a 54 128 2147483647
a 54 128 2147483647
a 54 128 2147483647
a 54 132 2147483647
a 54 150 2147483647
a 54 151 2147483647
a 54 153 2147483647
a 54 170 2147483647
a 55 105 2147483647
a 55 139 2147483647
a 55 140 2147483647
a 55 158 2147483647
a 55 159 2147483647
a 55 160 2147483647
a 55 161 2147483647
a 55 162 2147483647
a 55 163 2147483647
a 55 164 2147483647
a 55 165 2147483647
a 55 166 2147483647
a 55 167 2147483647
a 55 168 2147483647
a 56 79 2147483647
a 56 80 2147483647
a 56 81 2147483647
a 56 110 2147483647
a 56 111 2147483647
a 56 122 2147483647
a 56 123 2147483647
a 56 124 2147483647
a 56 126 2147483647
a 56 127 2147483647
a 56 128 2147483647
a 56 130 2147483647
a 56 131 2147483647
a 56 132 2147483647
a 56 133 2147483647
a 56 134 2147483647
a 56 143 2147483647
a 56 144 2147483647
a 56 145 2147483647
a 56 146 2147483647
a 56 147 2147483647
a 56 148 2147483647
a 56 149 2147483647
a 56 150 2147483647
a 56 151 2147483647
a 56 152 2147483647
a 56 154 2147483647
a 56 171 2147483647
a 56 172 2147483647
a 57 60 2147483647
a 57 84 2147483647
a 57 86 2147483647
a 57 87 2147483647
a 57 88 2147483647
a 57 89 2147483647
a 57 90 2147483647
a 57 91 2147483647
a 57 122 2147483647
a 57 123 2147483647
a 57 124 2147483647
a 57 154 2147483647
a 57 171 2147483647
a 57 172 2147483647
a 58 93 2147483647
a 58 94 2147483647
a 58 95 2147483647
a 58 96 2147483647
a 58 97 2147483647
a 58 98 2147483647
a 58 99 2147483647
a 58 100 2147483647
a 58 101 2147483647
a 58 112 2147483647
a 58 113 2147483647
a 58 114 2147483647
a 58 115 2147483647
a 58 116 2147483647
a 58 117 2147483647
a 58 118 2147483647
a 58 119 2147483647
a 58 120 2147483647
a 58 125 2147483647
a 58 135 2147483647
a 58 137 2147483647
a 58 138 2147483647
a 58 155 2147483647
a 58 175 2147483647
a 58 176 2147483647
a 58 177 2147483647
a 59 141 2147483647
a 59 142 2147483647
a 59 173 2147483647
a 59 174 2147483647
a 60 178 15.7954
a 61 178 4.97114
a 62 178 9.14047
a 63 178 10.6238
a 64 178 2.44548
a 65 178 1.84413
a 66 178 9.46119
a 67 178 3.84862
a 68 178 8.41886
a 69 178 1.04233
a 70 178 9.34092
a 71 178 6.57473
a 72 178 26.2989
a 73 178 12.5481
a 74 178 28.584
a 75 178 14.8332
a 76 178 2.32521
a 77 178 4.20943
a 78 178 10.1026
a 79 178 3.20718
a 80 178 4.81078
a 81 178 16.9179
a 82 178 2.68602
a 83 178 6.33419
a 84 178 5.8932
a 85 178 15.0738
a 86 178 0.801796
a 87 178 15.5949
a 88 178 7.4567
a 89 178 4.7306
a 90 178 15.1139
a 91 178 13.6706
a 92 178 1.44323
a 93 178 3.96889
a 94 178 8.69949
a 95 178 10.9445
a 96 178 3.60808
a 97 178 3.40763
a 98 178 6.33419
a 99 178 15.194
a 100 178 10.263
a 101 178 4.16934
a 102 178 8.09814
a 103 178 18.4012
a 104 178 2.12476
a 105 178 2.88647
a 106 178 5.21167
a 107 178 10.5436
a 108 178 14.5526
a 109 178 10.8643
a 110 178 15.5148
a 111 178 19.4035
a 112 178 3.68826
a 113 178 13.7107
a 114 178 9.4211
a 115 178 14.6328
a 116 178 0.922065
a 117 178 7.61706
a 118 178 10.9846
a 119 178 2.28512
a 120 178 4.65042
a 121 178 3.76844
a 122 178 8.2585
a 123 178 10.7441
a 124 178 6.41437
a 125 178 10.6238
a 126 178 3.68826
a 127 178 4.08916
a 128 178 9.26074
a 129 178 4.40988
a 130 178 7.09589
a 131 178 25.1363
a 132 178 6.73509
a 133 178 8.33868
a 134 178 4.49006
a 135 178 17.399
a 136 178 11.2251
a 137 178 12.7486
a 138 178 4.24952
a 139 178 7.17607
a 140 178 0.320718
a 141 178 8.13823
a 142 178 3.00674
a 143 178 8.85985
a 144 178 4.69051
a 145 178 2.12476
a 146 178 4.69051
a 147 178 3.36754
a 148 178 11.0648
a 149 178 9.94227
a 150 178 2.20494
a 151 178 15.9557
a 152 178 4.85087
a 153 178 3.9288
a 154 178 8.94003
a 155 178 2.56575
a 156 178 10.5837
a 157 178 16.4769
a 158 178 10.7441
a 159 178 12.1071
a 160 178 4.00898
a 161 178 15.5148
a 162 178 8.17832
a 163 178 3.5279
a 164 178 8.6594
a 165 178 20.085
a 166 178 7.69724
a 167 178 13.7909
a 168 178 3.9288
a 169 178 4.20943
a 170 178 4.97114
a 171 178 7.93778
a 172 178 10.5436
a 173 178 6.73509
a 174 178 9.22065
a 175 178 5.97338
a 176 178 4.97114
a 177 178 13.2296
